c User generated cnf file
p cnf 7 25
3 3 -1 0 
5 4 -5 0 
1 5 -3 0 
5 -7 5 0 
4 4 -6 0 
5 -6 5 0 
-2 1 5 0 
-6 7 4 0 
5 -6 1 0 
4 -2 5 0 
4 -3 1 0 
-4 3 6 0 
-4 1 3 0 
2 3 -7 0 
4 -2 2 0 
-5 1 1 0 
4 5 -5 0 
1 -2 4 0 
3 1 -4 0 
1 2 -5 0 
-7 1 3 0 
6 -4 5 0 
7 -1 2 0 
7 -7 1 0 
5 7 -4 0 
